1196.33 0
0 46 118 81 111 110 122 123 124 127 128 114 131 116 117 0
0 72 47 76 134 50 53 102 101 35 36 99 97 96 38 44 43 2 10 8 7 12 11 100 61 29 92 88 16 93 30 91 0
0 82 20 89 83 84 85 86 87 14 15 27 28 90 75 48 32 1 74 24 22 0
0 64 77 73 66 17 18 19 65 113 129 112 132 71 0
0 125 126 121 120 109 108 107 106 115 119 130 0
0 78 133 33 80 68 69 70 67 79 63 34 49 52 51 59 23 0
0 21 25 26 31 58 57 105 13 39 94 45 5 6 9 4 42 41 3 40 95 37 98 104 103 56 55 54 62 60 0